instances/shortest_path/discrete/shortest_path_4_2.lp
\ Model nohadani_4_2
\ LP format - for model browsing. Use MPS format to capture full model detail.
\ Signature: 0x26b3cf7f3313a25f
Minimize
  64.88451279003334 y[0,1] + 33.24154027718932 y[0,3]
   + 64.88451279003334 y[1,0] + 56.08029957123981 y[1,2]
   + 66.007575322837 y[1,3] + 56.08029957123981 y[2,1]
   + 59.81638571495272 y[2,3] + 33.24154027718932 y[3,0]
   + 66.007575322837 y[3,1] + 59.81638571495272 y[3,2] + x[0,1] + x[0,3]
   + x[1,0] + x[1,2] + x[1,3] + x[2,1] + x[2,3] + x[3,0] + x[3,1] + x[3,2]
   + 6.488451279003335 r[0,1] + 3.324154027718933 r[0,3]
   + 6.488451279003335 r[1,0] + 5.608029957123982 r[1,2]
   + 6.6007575322837 r[1,3] + 5.608029957123982 r[2,1]
   + 5.981638571495273 r[2,3] + 3.324154027718933 r[3,0]
   + 6.6007575322837 r[3,1] + 5.981638571495273 r[3,2]
Subject To
 flow_cons_inner_nodes[1]: y[0,1] - y[1,0] - y[1,2] - y[1,3] + y[2,1]
   + y[3,1] = 0
 flow_cons_inner_nodes[3]: y[0,3] + y[1,3] + y[2,3] - y[3,0] - y[3,1]
   - y[3,2] = 0
 flow_cons_source: y[0,1] + y[0,3] - y[1,0] - y[3,0] = 1
 flow_cons_target: y[1,2] - y[2,1] - y[2,3] + y[3,2] = 1
 primal_lower: 3.992654246530132 x[0,1] + 8.630760560324564 x[0,3]
   + 7.144622365315262 x[1,0] + 3.008559502209406 x[1,2]
   + 2.673879900732513 x[1,3] + 1.448184420200569 x[2,1]
   + 3.171497681592939 x[2,3] + 3.414196456416549 x[3,0]
   + 5.406335349708063 x[3,1] + 3.160147049079702 x[3,2] + 35 u[0,1]
   + 56 u[0,3] + 50 u[1,0] + 91 u[1,2] + 44 u[1,3] + 57 u[2,1] + 5 u[2,3]
   + 83 u[3,0] + 13 u[3,1] + 22 u[3,2] <= 91
 mccormick1[0,1]: - u[0,1] + r[0,1] <= 0
 mccormick1[0,3]: - u[0,3] + r[0,3] <= 0
 mccormick1[1,0]: - u[1,0] + r[1,0] <= 0
 mccormick1[1,2]: - u[1,2] + r[1,2] <= 0
 mccormick1[1,3]: - u[1,3] + r[1,3] <= 0
 mccormick1[2,1]: - u[2,1] + r[2,1] <= 0
 mccormick1[2,3]: - u[2,3] + r[2,3] <= 0
 mccormick1[3,0]: - u[3,0] + r[3,0] <= 0
 mccormick1[3,1]: - u[3,1] + r[3,1] <= 0
 mccormick1[3,2]: - u[3,2] + r[3,2] <= 0
 mccormick2[0,1]: - y[0,1] + r[0,1] <= 0
 mccormick2[0,3]: - y[0,3] + r[0,3] <= 0
 mccormick2[1,0]: - y[1,0] + r[1,0] <= 0
 mccormick2[1,2]: - y[1,2] + r[1,2] <= 0
 mccormick2[1,3]: - y[1,3] + r[1,3] <= 0
 mccormick2[2,1]: - y[2,1] + r[2,1] <= 0
 mccormick2[2,3]: - y[2,3] + r[2,3] <= 0
 mccormick2[3,0]: - y[3,0] + r[3,0] <= 0
 mccormick2[3,1]: - y[3,1] + r[3,1] <= 0
 mccormick2[3,2]: - y[3,2] + r[3,2] <= 0
 mccormick3[0,1]: - y[0,1] - u[0,1] + r[0,1] >= -1
 mccormick3[0,3]: - y[0,3] - u[0,3] + r[0,3] >= -1
 mccormick3[1,0]: - y[1,0] - u[1,0] + r[1,0] >= -1
 mccormick3[1,2]: - y[1,2] - u[1,2] + r[1,2] >= -1
 mccormick3[1,3]: - y[1,3] - u[1,3] + r[1,3] >= -1
 mccormick3[2,1]: - y[2,1] - u[2,1] + r[2,1] >= -1
 mccormick3[2,3]: - y[2,3] - u[2,3] + r[2,3] >= -1
 mccormick3[3,0]: - y[3,0] - u[3,0] + r[3,0] >= -1
 mccormick3[3,1]: - y[3,1] - u[3,1] + r[3,1] >= -1
 mccormick3[3,2]: - y[3,2] - u[3,2] + r[3,2] >= -1
Bounds
Binaries
 y[0,1] y[0,3] y[1,0] y[1,2] y[1,3] y[2,1] y[2,3] y[3,0] y[3,1] y[3,2]
 x[0,1] x[0,3] x[1,0] x[1,2] x[1,3] x[2,1] x[2,3] x[3,0] x[3,1] x[3,2]
 u[0,1] u[0,3] u[1,0] u[1,2] u[1,3] u[2,1] u[2,3] u[3,0] u[3,1] u[3,2]
 r[0,1] r[0,3] r[1,0] r[1,2] r[1,3] r[2,1] r[2,3] r[3,0] r[3,1] r[3,2]
End
