instances/shortest_path/discrete/shortest_path_4_2.mps
* Signature: 0x26b3cf7f3313a25f
NAME nohadani_4_2
ROWS
 N  OBJ
 E  flow_cons_inner_nodes[1]
 E  flow_cons_inner_nodes[3]
 E  flow_cons_source
 E  flow_cons_target
 L  primal_lower
 L  mccormick1[0,1]
 L  mccormick1[0,3]
 L  mccormick1[1,0]
 L  mccormick1[1,2]
 L  mccormick1[1,3]
 L  mccormick1[2,1]
 L  mccormick1[2,3]
 L  mccormick1[3,0]
 L  mccormick1[3,1]
 L  mccormick1[3,2]
 L  mccormick2[0,1]
 L  mccormick2[0,3]
 L  mccormick2[1,0]
 L  mccormick2[1,2]
 L  mccormick2[1,3]
 L  mccormick2[2,1]
 L  mccormick2[2,3]
 L  mccormick2[3,0]
 L  mccormick2[3,1]
 L  mccormick2[3,2]
 G  mccormick3[0,1]
 G  mccormick3[0,3]
 G  mccormick3[1,0]
 G  mccormick3[1,2]
 G  mccormick3[1,3]
 G  mccormick3[2,1]
 G  mccormick3[2,3]
 G  mccormick3[3,0]
 G  mccormick3[3,1]
 G  mccormick3[3,2]
COLUMNS
    MARKER    'MARKER'                 'INTORG'
    y[0,1]    OBJ       6.4884512790033341e+01
    y[0,1]    flow_cons_inner_nodes[1]  1
    y[0,1]    flow_cons_source  1
    y[0,1]    mccormick2[0,1]  -1
    y[0,1]    mccormick3[0,1]  -1
    y[0,3]    OBJ       3.3241540277189323e+01
    y[0,3]    flow_cons_inner_nodes[3]  1
    y[0,3]    flow_cons_source  1
    y[0,3]    mccormick2[0,3]  -1
    y[0,3]    mccormick3[0,3]  -1
    y[1,0]    OBJ       6.4884512790033341e+01
    y[1,0]    flow_cons_inner_nodes[1]  -1
    y[1,0]    flow_cons_source  -1
    y[1,0]    mccormick2[1,0]  -1
    y[1,0]    mccormick3[1,0]  -1
    y[1,2]    OBJ       5.6080299571239813e+01
    y[1,2]    flow_cons_inner_nodes[1]  -1
    y[1,2]    flow_cons_target  1
    y[1,2]    mccormick2[1,2]  -1
    y[1,2]    mccormick3[1,2]  -1
    y[1,3]    OBJ       66.007575322837
    y[1,3]    flow_cons_inner_nodes[1]  -1
    y[1,3]    flow_cons_inner_nodes[3]  1
    y[1,3]    mccormick2[1,3]  -1
    y[1,3]    mccormick3[1,3]  -1
    y[2,1]    OBJ       5.6080299571239813e+01
    y[2,1]    flow_cons_inner_nodes[1]  1
    y[2,1]    flow_cons_target  -1
    y[2,1]    mccormick2[2,1]  -1
    y[2,1]    mccormick3[2,1]  -1
    y[2,3]    OBJ       5.9816385714952723e+01
    y[2,3]    flow_cons_inner_nodes[3]  1
    y[2,3]    flow_cons_target  -1
    y[2,3]    mccormick2[2,3]  -1
    y[2,3]    mccormick3[2,3]  -1
    y[3,0]    OBJ       3.3241540277189323e+01
    y[3,0]    flow_cons_inner_nodes[3]  -1
    y[3,0]    flow_cons_source  -1
    y[3,0]    mccormick2[3,0]  -1
    y[3,0]    mccormick3[3,0]  -1
    y[3,1]    OBJ       66.007575322837
    y[3,1]    flow_cons_inner_nodes[1]  1
    y[3,1]    flow_cons_inner_nodes[3]  -1
    y[3,1]    mccormick2[3,1]  -1
    y[3,1]    mccormick3[3,1]  -1
    y[3,2]    OBJ       5.9816385714952723e+01
    y[3,2]    flow_cons_inner_nodes[3]  -1
    y[3,2]    flow_cons_target  1
    y[3,2]    mccormick2[3,2]  -1
    y[3,2]    mccormick3[3,2]  -1
    x[0,1]    OBJ       1
    x[0,1]    primal_lower  3.9926542465301322e+00
    x[0,3]    OBJ       1
    x[0,3]    primal_lower  8.6307605603245641e+00
    x[1,0]    OBJ       1
    x[1,0]    primal_lower  7.1446223653152616e+00
    x[1,2]    OBJ       1
    x[1,2]    primal_lower  3.0085595022094065e+00
    x[1,3]    OBJ       1
    x[1,3]    primal_lower  2.6738799007325134e+00
    x[2,1]    OBJ       1
    x[2,1]    primal_lower  1.4481844202005691e+00
    x[2,3]    OBJ       1
    x[2,3]    primal_lower  3.1714976815929390e+00
    x[3,0]    OBJ       1
    x[3,0]    primal_lower  3.4141964564165490e+00
    x[3,1]    OBJ       1
    x[3,1]    primal_lower  5.4063353497080628e+00
    x[3,2]    OBJ       1
    x[3,2]    primal_lower  3.1601470490797019e+00
    u[0,1]    primal_lower  35
    u[0,1]    mccormick1[0,1]  -1
    u[0,1]    mccormick3[0,1]  -1
    u[0,3]    primal_lower  56
    u[0,3]    mccormick1[0,3]  -1
    u[0,3]    mccormick3[0,3]  -1
    u[1,0]    primal_lower  50
    u[1,0]    mccormick1[1,0]  -1
    u[1,0]    mccormick3[1,0]  -1
    u[1,2]    primal_lower  91
    u[1,2]    mccormick1[1,2]  -1
    u[1,2]    mccormick3[1,2]  -1
    u[1,3]    primal_lower  44
    u[1,3]    mccormick1[1,3]  -1
    u[1,3]    mccormick3[1,3]  -1
    u[2,1]    primal_lower  57
    u[2,1]    mccormick1[2,1]  -1
    u[2,1]    mccormick3[2,1]  -1
    u[2,3]    primal_lower  5
    u[2,3]    mccormick1[2,3]  -1
    u[2,3]    mccormick3[2,3]  -1
    u[3,0]    primal_lower  83
    u[3,0]    mccormick1[3,0]  -1
    u[3,0]    mccormick3[3,0]  -1
    u[3,1]    primal_lower  13
    u[3,1]    mccormick1[3,1]  -1
    u[3,1]    mccormick3[3,1]  -1
    u[3,2]    primal_lower  22
    u[3,2]    mccormick1[3,2]  -1
    u[3,2]    mccormick3[3,2]  -1
    r[0,1]    OBJ       6.4884512790033346e+00
    r[0,1]    mccormick1[0,1]  1
    r[0,1]    mccormick2[0,1]  1
    r[0,1]    mccormick3[0,1]  1
    r[0,3]    OBJ       3.3241540277189325e+00
    r[0,3]    mccormick1[0,3]  1
    r[0,3]    mccormick2[0,3]  1
    r[0,3]    mccormick3[0,3]  1
    r[1,0]    OBJ       6.4884512790033346e+00
    r[1,0]    mccormick1[1,0]  1
    r[1,0]    mccormick2[1,0]  1
    r[1,0]    mccormick3[1,0]  1
    r[1,2]    OBJ       5.6080299571239820e+00
    r[1,2]    mccormick1[1,2]  1
    r[1,2]    mccormick2[1,2]  1
    r[1,2]    mccormick3[1,2]  1
    r[1,3]    OBJ       6.6007575322837
    r[1,3]    mccormick1[1,3]  1
    r[1,3]    mccormick2[1,3]  1
    r[1,3]    mccormick3[1,3]  1
    r[2,1]    OBJ       5.6080299571239820e+00
    r[2,1]    mccormick1[2,1]  1
    r[2,1]    mccormick2[2,1]  1
    r[2,1]    mccormick3[2,1]  1
    r[2,3]    OBJ       5.9816385714952727e+00
    r[2,3]    mccormick1[2,3]  1
    r[2,3]    mccormick2[2,3]  1
    r[2,3]    mccormick3[2,3]  1
    r[3,0]    OBJ       3.3241540277189325e+00
    r[3,0]    mccormick1[3,0]  1
    r[3,0]    mccormick2[3,0]  1
    r[3,0]    mccormick3[3,0]  1
    r[3,1]    OBJ       6.6007575322837
    r[3,1]    mccormick1[3,1]  1
    r[3,1]    mccormick2[3,1]  1
    r[3,1]    mccormick3[3,1]  1
    r[3,2]    OBJ       5.9816385714952727e+00
    r[3,2]    mccormick1[3,2]  1
    r[3,2]    mccormick2[3,2]  1
    r[3,2]    mccormick3[3,2]  1
    MARKER    'MARKER'                 'INTEND'
RHS
    RHS1      flow_cons_source  1
    RHS1      flow_cons_target  1
    RHS1      primal_lower  91
    RHS1      mccormick3[0,1]  -1
    RHS1      mccormick3[0,3]  -1
    RHS1      mccormick3[1,0]  -1
    RHS1      mccormick3[1,2]  -1
    RHS1      mccormick3[1,3]  -1
    RHS1      mccormick3[2,1]  -1
    RHS1      mccormick3[2,3]  -1
    RHS1      mccormick3[3,0]  -1
    RHS1      mccormick3[3,1]  -1
    RHS1      mccormick3[3,2]  -1
BOUNDS
 BV BND1      y[0,1]  
 BV BND1      y[0,3]  
 BV BND1      y[1,0]  
 BV BND1      y[1,2]  
 BV BND1      y[1,3]  
 BV BND1      y[2,1]  
 BV BND1      y[2,3]  
 BV BND1      y[3,0]  
 BV BND1      y[3,1]  
 BV BND1      y[3,2]  
 BV BND1      x[0,1]  
 BV BND1      x[0,3]  
 BV BND1      x[1,0]  
 BV BND1      x[1,2]  
 BV BND1      x[1,3]  
 BV BND1      x[2,1]  
 BV BND1      x[2,3]  
 BV BND1      x[3,0]  
 BV BND1      x[3,1]  
 BV BND1      x[3,2]  
 BV BND1      u[0,1]  
 BV BND1      u[0,3]  
 BV BND1      u[1,0]  
 BV BND1      u[1,2]  
 BV BND1      u[1,3]  
 BV BND1      u[2,1]  
 BV BND1      u[2,3]  
 BV BND1      u[3,0]  
 BV BND1      u[3,1]  
 BV BND1      u[3,2]  
 BV BND1      r[0,1]  
 BV BND1      r[0,3]  
 BV BND1      r[1,0]  
 BV BND1      r[1,2]  
 BV BND1      r[1,3]  
 BV BND1      r[2,1]  
 BV BND1      r[2,3]  
 BV BND1      r[3,0]  
 BV BND1      r[3,1]  
 BV BND1      r[3,2]  
ENDATA
