instances/shortest_path/discrete/shortest_path_4_2.kp
15485
91

[3.9926542465301322 8.630760560324564 7.144622365315262 3.0085595022094065 2.6738799007325134 1.4481844202005691 3.171497681592939 3.414196456416549 5.406335349708063 3.160147049079702]

[35 56 50 91 44 57 5 83 13 22]
